
Gurobi 9.0.2 (win64) logging started Mon Oct 25 10:48:33 2021

Changed value of parameter LogFile to logs\CRVRP_10-3-7-100_0_2.LOG
   Prev: logs\CRVRP_10-3-7-100_0_1.LOG  Default: 
Changed value of parameter Seed to 1337068783
   Prev: 1041775247  Min: 0  Max: 2000000000  Default: 0
Parameter Threads unchanged
   Value: 2  Min: 0  Max: 1024  Default: 0
Parameter TimeLimit unchanged
   Value: 600.0  Min: 0.0  Max: inf  Default: inf
Parameter Symmetry unchanged
   Value: 2  Min: -1  Max: 2  Default: -1
Parameter Cuts unchanged
   Value: 2  Min: -1  Max: 3  Default: -1
Parameter PreDepRow unchanged
   Value: 1  Min: -1  Max: 1  Default: -1
Parameter ScaleFlag unchanged
   Value: 1  Min: -1  Max: 3  Default: -1
Parameter NormAdjust unchanged
   Value: 0  Min: -1  Max: 3  Default: -1
Gurobi Optimizer version 9.0.2 build v9.0.2rc0 (win64)
Optimize a model with 6903 rows, 3980 columns and 27871 nonzeros
Model fingerprint: 0x362e37dd
Variable types: 72 continuous, 3908 integer (2612 binary)
Coefficient statistics:
  Matrix range     [1e+00, 1e+05]
  Objective range  [1e+00, 1e+00]
  Bounds range     [1e+00, 1e+04]
  RHS range        [1e+00, 1e+05]
Presolve removed 0 rows and 1054 columns
Presolve time: 0.00s

Explored 0 nodes (0 simplex iterations) in 0.01 seconds
Thread count was 1 (of 4 available processors)

Solution count 0

Model is infeasible
Best objective -, best bound -, gap -

IIS computed: 1 constraints, 1 bounds
IIS runtime: 0.00 seconds
Discarded solution information

Gurobi 9.0.2 (win64) logging started Mon Oct 25 10:49:09 2021

Changed value of parameter LogFile to logs\CRVRP_10-3-7-100_0_2.LOG
   Prev: logs\CRVRP_10-3-7-100_0_1.LOG  Default: 
Changed value of parameter Seed to 178288871
   Prev: 288157537  Min: 0  Max: 2000000000  Default: 0
Parameter Threads unchanged
   Value: 2  Min: 0  Max: 1024  Default: 0
Parameter TimeLimit unchanged
   Value: 600.0  Min: 0.0  Max: inf  Default: inf
Parameter Symmetry unchanged
   Value: 2  Min: -1  Max: 2  Default: -1
Parameter Cuts unchanged
   Value: 2  Min: -1  Max: 3  Default: -1
Parameter PreDepRow unchanged
   Value: 1  Min: -1  Max: 1  Default: -1
Parameter ScaleFlag unchanged
   Value: 1  Min: -1  Max: 3  Default: -1
Parameter NormAdjust unchanged
   Value: 0  Min: -1  Max: 3  Default: -1
Gurobi Optimizer version 9.0.2 build v9.0.2rc0 (win64)
Optimize a model with 6903 rows, 3980 columns and 27871 nonzeros
Model fingerprint: 0xb07d88a4
Variable types: 72 continuous, 3908 integer (2612 binary)
Coefficient statistics:
  Matrix range     [1e+00, 1e+06]
  Objective range  [1e+00, 1e+00]
  Bounds range     [1e+00, 1e+04]
  RHS range        [1e+00, 1e+06]
Presolve removed 0 rows and 1054 columns
Presolve time: 0.00s

Explored 0 nodes (0 simplex iterations) in 0.01 seconds
Thread count was 1 (of 4 available processors)

Solution count 0

Model is infeasible
Best objective -, best bound -, gap -

IIS computed: 1 constraints, 1 bounds
IIS runtime: 0.00 seconds
Discarded solution information

Gurobi 9.0.2 (win64) logging started Mon Oct 25 13:24:48 2021

Changed value of parameter LogFile to logs\CRVRP_10-3-7-100_0_2.LOG
   Prev: logs\CRVRP_10-3-7-100_0_1.LOG  Default: 
Changed value of parameter Seed to 690680725
   Prev: 1646570122  Min: 0  Max: 2000000000  Default: 0
Parameter Threads unchanged
   Value: 2  Min: 0  Max: 1024  Default: 0
Parameter TimeLimit unchanged
   Value: 60.0  Min: 0.0  Max: inf  Default: inf
Parameter Symmetry unchanged
   Value: 2  Min: -1  Max: 2  Default: -1
Parameter Cuts unchanged
   Value: 2  Min: -1  Max: 3  Default: -1
Parameter PreDepRow unchanged
   Value: 1  Min: -1  Max: 1  Default: -1
Parameter ScaleFlag unchanged
   Value: 1  Min: -1  Max: 3  Default: -1
Parameter NormAdjust unchanged
   Value: 0  Min: -1  Max: 3  Default: -1
Gurobi Optimizer version 9.0.2 build v9.0.2rc0 (win64)
Optimize a model with 6904 rows, 3980 columns and 27872 nonzeros
Model fingerprint: 0x38c2de8d
Variable types: 72 continuous, 3908 integer (2612 binary)
Coefficient statistics:
  Matrix range     [1e+00, 1e+06]
  Objective range  [1e+00, 1e+00]
  Bounds range     [1e+00, 1e+04]
  RHS range        [1e+00, 1e+06]
Presolve removed 5866 rows and 3062 columns
Presolve time: 0.17s
Presolved: 1038 rows, 918 columns, 7550 nonzeros
Variable types: 26 continuous, 892 integer (772 binary)

Root relaxation: objective 9.699235e+01, 440 iterations, 0.03 seconds

    Nodes    |    Current Node    |     Objective Bounds      |     Work
 Expl Unexpl |  Obj  Depth IntInf | Incumbent    BestBd   Gap | It/Node Time

     0     0   96.99235    0   57          -   96.99235      -     -    0s
     0     0  109.51561    0   96          -  109.51561      -     -    0s
H    0     0                     304.2618707  109.51561  64.0%     -    0s
H    0     0                     215.2264181  109.51561  49.1%     -    0s
     0     0  111.18589    0  107  215.22642  111.18589  48.3%     -    0s
     0     0  111.19507    0  100  215.22642  111.19507  48.3%     -    0s
     0     0  112.71244    0  100  215.22642  112.71244  47.6%     -    1s
H    0     0                     203.7973094  112.71244  44.7%     -    1s
     0     0  113.30654    0   96  203.79731  113.30654  44.4%     -    1s
     0     0  113.42684    0  101  203.79731  113.42684  44.3%     -    1s
     0     0  113.42864    0  102  203.79731  113.42864  44.3%     -    1s
     0     0  113.82257    0  101  203.79731  113.82257  44.1%     -    1s
     0     0  113.82279    0  102  203.79731  113.82279  44.1%     -    1s
     0     0  113.94226    0   98  203.79731  113.94226  44.1%     -    1s
     0     0  113.94226    0   81  203.79731  113.94226  44.1%     -    2s
     0     2  113.94226    0   81  203.79731  113.94226  44.1%     -    2s

Gurobi 9.0.2 (win64) logging started Tue Oct 26 10:59:46 2021

Changed value of parameter LogFile to logs\CRVRP_10-3-7-100_0_2.LOG
   Prev: logs\CRVRP_10-3-7-100_0_1.LOG  Default: 
Changed value of parameter Seed to 112185256
   Prev: 1645272409  Min: 0  Max: 2000000000  Default: 0
Parameter Threads unchanged
   Value: 2  Min: 0  Max: 1024  Default: 0
Parameter TimeLimit unchanged
   Value: 600.0  Min: 0.0  Max: inf  Default: inf
Parameter Symmetry unchanged
   Value: 2  Min: -1  Max: 2  Default: -1
Parameter Cuts unchanged
   Value: 2  Min: -1  Max: 3  Default: -1
Parameter PreDepRow unchanged
   Value: 1  Min: -1  Max: 1  Default: -1
Parameter ScaleFlag unchanged
   Value: 1  Min: -1  Max: 3  Default: -1
Parameter NormAdjust unchanged
   Value: 0  Min: -1  Max: 3  Default: -1
Gurobi Optimizer version 9.0.2 build v9.0.2rc0 (win64)
Optimize a model with 6904 rows, 3980 columns and 27872 nonzeros
Model fingerprint: 0x38c2de8d
Variable types: 72 continuous, 3908 integer (2612 binary)
Coefficient statistics:
  Matrix range     [1e+00, 1e+06]
  Objective range  [1e+00, 1e+00]
  Bounds range     [1e+00, 1e+04]
  RHS range        [1e+00, 1e+06]
Presolve removed 5866 rows and 3062 columns
Presolve time: 0.15s
Presolved: 1038 rows, 918 columns, 7550 nonzeros
Variable types: 26 continuous, 892 integer (772 binary)

Root relaxation: objective 9.699235e+01, 488 iterations, 0.03 seconds

    Nodes    |    Current Node    |     Objective Bounds      |     Work
 Expl Unexpl |  Obj  Depth IntInf | Incumbent    BestBd   Gap | It/Node Time

     0     0   96.99235    0   52          -   96.99235      -     -    0s
     0     0  109.49738    0   98          -  109.49738      -     -    0s
H    0     0                     235.0622972  109.49738  53.4%     -    0s
     0     0  111.78855    0   70  235.06230  111.78855  52.4%     -    0s
H    0     0                     215.2264181  111.78855  48.1%     -    0s
     0     0  111.81139    0   68  215.22642  111.81139  48.0%     -    0s
     0     0  111.81139    0   70  215.22642  111.81139  48.0%     -    0s
     0     0  112.72507    0   88  215.22642  112.72507  47.6%     -    1s
H    0     0                     205.3138646  112.72507  45.1%     -    1s
     0     0  112.76488    0   86  205.31386  112.76488  45.1%     -    1s
     0     0  114.00165    0  105  205.31386  114.00165  44.5%     -    1s
H    0     0                     205.1632595  114.00165  44.4%     -    1s
     0     0  114.01993    0  105  205.16326  114.01993  44.4%     -    1s
     0     0  114.02155    0  106  205.16326  114.02155  44.4%     -    1s
     0     0  115.95926    0   96  205.16326  115.95926  43.5%     -    2s
     0     0  115.96161    0   96  205.16326  115.96161  43.5%     -    2s
     0     0  116.68312    0  107  205.16326  116.68312  43.1%     -    3s
     0     0  116.85931    0  108  205.16326  116.85931  43.0%     -    3s
     0     0  116.86858    0  111  205.16326  116.86858  43.0%     -    3s
     0     0  117.25162    0  118  205.16326  117.25162  42.8%     -    3s
     0     0  117.25882    0  116  205.16326  117.25882  42.8%     -    3s
     0     0  117.30593    0  128  205.16326  117.30593  42.8%     -    4s
     0     0  117.31106    0  128  205.16326  117.31106  42.8%     -    4s
     0     0  117.37729    0  122  205.16326  117.37729  42.8%     -    5s
     0     0  117.37729    0  111  205.16326  117.37729  42.8%     -    5s
     0     2  117.43868    0  111  205.16326  117.43868  42.8%     -    5s
H   57    57                     203.7973094  117.86560  42.2%  55.1    6s
H  115   107                     203.7973094  117.86560  42.2%  44.5    6s
H  306   268                     201.9918440  118.01931  41.6%  36.0    9s
   393   370  180.71116   59   42  201.99184  118.10676  41.5%  33.4   10s
   744   580  155.82300   10   97  201.99184  121.90180  39.7%  31.6   15s
   753   586  125.28208    4  123  201.99184  121.90180  39.7%  31.2   20s
   806   626  121.90180   28   96  201.99184  121.90180  39.7%  37.0   25s
   985   726  162.80815   71   47  201.99184  121.90180  39.7%  42.6   30s
  1470   953  169.09511   44   57  201.99184  121.90180  39.7%  43.7   35s
H 2173  1243                     201.9918440  122.06617  39.6%  42.0   39s
  2232  1270  139.78084   34   61  201.99184  122.19280  39.5%  41.6   40s

Gurobi 9.0.2 (win64) logging started Fri Oct 29 14:37:23 2021

Changed value of parameter LogFile to logs\CRVRP_10-3-7-100_0_2.LOG
   Prev: logs\CRVRP_10-3-7-100_0_1.LOG  Default: 
Changed value of parameter Seed to 1423443318
   Prev: 533813613  Min: 0  Max: 2000000000  Default: 0
Parameter Threads unchanged
   Value: 2  Min: 0  Max: 1024  Default: 0
Parameter TimeLimit unchanged
   Value: 60.0  Min: 0.0  Max: inf  Default: inf
Parameter Symmetry unchanged
   Value: 2  Min: -1  Max: 2  Default: -1
Parameter Cuts unchanged
   Value: 2  Min: -1  Max: 3  Default: -1
Parameter PreDepRow unchanged
   Value: 1  Min: -1  Max: 1  Default: -1
Parameter ScaleFlag unchanged
   Value: 1  Min: -1  Max: 3  Default: -1
Parameter NormAdjust unchanged
   Value: 0  Min: -1  Max: 3  Default: -1
Gurobi Optimizer version 9.0.2 build v9.0.2rc0 (win64)
Optimize a model with 2815 rows, 1796 columns and 12549 nonzeros
Model fingerprint: 0x3b516979
Variable types: 48 continuous, 1748 integer (1172 binary)
Coefficient statistics:
  Matrix range     [1e+00, 1e+06]
  Objective range  [1e+00, 1e+00]
  Bounds range     [1e+00, 1e+04]
  RHS range        [1e+00, 1e+06]
Presolve removed 1871 rows and 1077 columns
Presolve time: 0.09s
Presolved: 944 rows, 719 columns, 6062 nonzeros
Variable types: 21 continuous, 698 integer (580 binary)

Root relaxation: objective 3.147151e+03, 553 iterations, 0.02 seconds

    Nodes    |    Current Node    |     Objective Bounds      |     Work
 Expl Unexpl |  Obj  Depth IntInf | Incumbent    BestBd   Gap | It/Node Time

     0     0 3147.15139    0   50          - 3147.15139      -     -    0s
     0     0 3202.21089    0   88          - 3202.21089      -     -    0s
H    0     0                    8019.0647255 3202.21089  60.1%     -    0s
     0     0 3283.36698    0   88 8019.06473 3283.36698  59.1%     -    0s
H    0     0                    7903.8391230 3283.36698  58.5%     -    0s
     0     0 3449.03394    0   89 7903.83912 3449.03394  56.4%     -    0s
H    0     0                    6495.0283058 3449.03394  46.9%     -    0s
     0     0 3449.08612    0   89 6495.02831 3449.08612  46.9%     -    0s
     0     0 3472.61036    0   92 6495.02831 3472.61036  46.5%     -    1s
     0     0 3479.04295    0   84 6495.02831 3479.04295  46.4%     -    1s
     0     0 3479.04301    0   89 6495.02831 3479.04301  46.4%     -    1s
     0     0 3501.61183    0   91 6495.02831 3501.61183  46.1%     -    1s
     0     0 3503.68217    0   90 6495.02831 3503.68217  46.1%     -    1s
     0     0 3503.68451    0   93 6495.02831 3503.68451  46.1%     -    1s
     0     0 3684.90703    0   89 6495.02831 3684.90703  43.3%     -    1s
     0     0 3685.12551    0   86 6495.02831 3685.12551  43.3%     -    1s
     0     0 3685.12748    0   82 6495.02831 3685.12748  43.3%     -    1s
     0     0 3692.92190    0   88 6495.02831 3692.92190  43.1%     -    1s
     0     0 3693.32742    0   98 6495.02831 3693.32742  43.1%     -    1s
     0     0 3693.32742    0   98 6495.02831 3693.32742  43.1%     -    1s
     0     0 3697.70856    0   90 6495.02831 3697.70856  43.1%     -    2s
     0     0 3697.74384    0   80 6495.02831 3697.74384  43.1%     -    2s
     0     0 3698.35259    0   81 6495.02831 3698.35259  43.1%     -    2s
     0     0 3698.35465    0   82 6495.02831 3698.35465  43.1%     -    2s
     0     0 3698.55611    0   86 6495.02831 3698.55611  43.1%     -    2s
     0     0 3698.55611    0   74 6495.02831 3698.55611  43.1%     -    2s
     0     2 3716.54923    0   73 6495.02831 3716.54923  42.8%     -    3s
H   28    30                    5338.5591747 3779.17785  29.2%  37.4    3s
   205   176 4770.88864   61   33 5338.55917 3779.17785  29.2%  44.6    5s
   796   600 4398.61532   33   79 5338.55917 3781.21688  29.2%  37.2   10s
   897   672 3796.43279   34   63 5338.55917 3783.60044  29.1%  56.4   15s
H  973   687                    5338.5591742 3783.60044  29.1%  62.4   16s
  1372   891 3829.08764   57   40 5338.55917 3786.33530  29.1%  65.7   20s
  2669  1456 4192.04963   51   48 5338.55917 3792.24486  29.0%  59.0   25s
* 3266  1805              58    5328.5460691 3793.10067  28.8%  57.7   26s
H 4327  2447                    5276.9314545 3793.90441  28.1%  56.3   30s
  5830  3463 infeasible   91      5276.93145 3795.40472  28.1%  56.5   35s
  7240  4452 3801.33850   44   52 5276.93145 3796.59836  28.1%  55.9   40s
  8612  5430 4939.27589   52   34 5276.93145 3797.23915  28.0%  55.7   45s
  9983  6126 3888.26020   51   61 5276.93145 3797.92536  28.0%  56.9   50s
 11360  7145 5043.06479   89   18 5276.93145 3798.52815  28.0%  57.2   55s
 12791  8028 5017.78130   63   38 5276.93145 3798.96601  28.0%  56.0   60s

Cutting planes:
  Gomory: 16
  Cover: 20
  Implied bound: 12
  Projected implied bound: 2
  MIR: 39
  StrongCG: 1
  Flow cover: 76
  GUB cover: 1
  Zero half: 19
  RLT: 3
  Relax-and-lift: 1

Explored 13000 nodes (732130 simplex iterations) in 60.01 seconds
Thread count was 2 (of 4 available processors)

Solution count 6: 5276.93 5328.55 5338.56 ... 8019.06

Time limit reached
Best objective 5.276931454496e+03, best bound 3.799070870236e+03, gap 28.0061%
Discarded solution information
